data/CVRPLIB/Vrp-Set-XML100/instances/XML100_1313_10.vrp
NAME : XML100_1313_10
COMMENT : Generated by Queiroga, Sadykov, Uchoa, and Vidal (2021)
TYPE : CVRP
DIMENSION : 101
EDGE_WEIGHT_TYPE : EUC_2D
CAPACITY : 11
NODE_COORD_SECTION
1    532  931 
2    821  537 
3    680  643 
4    231  684 
5    723  79  
6    190  634 
7    8    5   
8    532  334 
9    196  550 
10   488  504 
11   231  601 
12   705  550 
13   193  449 
14   196  544 
15   713  608 
16   818  268 
17   281  665 
18   216  834 
19   192  638 
20   761  2   
21   659  682 
22   738  516 
23   373  239 
24   208  95  
25   522  563 
26   161  337 
27   148  704 
28   475  625 
29   648  636 
30   171  996 
31   821  352 
32   676  616 
33   777  290 
34   164  625 
35   303  789 
36   299  634 
37   215  602 
38   458  730 
39   65   980 
40   620  588 
41   675  478 
42   563  527 
43   133  852 
44   201  612 
45   606  699 
46   202  766 
47   603  686 
48   609  634 
49   184  676 
50   973  893 
51   706  462 
52   334  612 
53   26   671 
54   607  503 
55   821  433 
56   413  614 
57   99   185 
58   745  514 
59   231  655 
60   127  589 
61   950  369 
62   173  614 
63   129  607 
64   954  611 
65   650  601 
66   693  575 
67   990  259 
68   852  95  
69   380  597 
70   607  617 
71   165  454 
72   185  614 
73   378  625 
74   312  554 
75   680  60  
76   169  604 
77   775  612 
78   700  609 
79   196  931 
80   472  684 
81   632  725 
82   652  629 
83   262  676 
84   143  663 
85   644  616 
86   636  10  
87   603  166 
88   552  948 
89   685  489 
90   801  144 
91   743  417 
92   275  752 
93   247  637 
94   489  383 
95   253  100 
96   739  153 
97   658  603 
98   160  583 
99   56   514 
100  168  7   
101  487  779 
DEMAND_SECTION
1    0   
2    1   
3    1   
4    1   
5    1   
6    1   
7    1   
8    1   
9    1   
10   1   
11   1   
12   1   
13   1   
14   1   
15   1   
16   1   
17   1   
18   1   
19   1   
20   1   
21   1   
22   1   
23   1   
24   1   
25   1   
26   1   
27   1   
28   1   
29   1   
30   1   
31   1   
32   1   
33   1   
34   1   
35   1   
36   1   
37   1   
38   1   
39   1   
40   1   
41   1   
42   1   
43   1   
44   1   
45   1   
46   1   
47   1   
48   1   
49   1   
50   1   
51   1   
52   1   
53   1   
54   1   
55   1   
56   1   
57   1   
58   1   
59   1   
60   1   
61   1   
62   1   
63   1   
64   1   
65   1   
66   1   
67   1   
68   1   
69   1   
70   1   
71   1   
72   1   
73   1   
74   1   
75   1   
76   1   
77   1   
78   1   
79   1   
80   1   
81   1   
82   1   
83   1   
84   1   
85   1   
86   1   
87   1   
88   1   
89   1   
90   1   
91   1   
92   1   
93   1   
94   1   
95   1   
96   1   
97   1   
98   1   
99   1   
100  1   
101  1   
DEPOT_SECTION
1
-1
EOF
