data/CVRPLIB/Vrp-Set-XML100/solutions/XML100_1313_10.sol
Route #1: 87
Route #2: 17 45 26 83 62 59 97 75 61 33 48
Route #3: 80 20 2 31 96 64 84 81 28 46 44
Route #4: 82 16 35 51 72 68 55 27 79 37 100
Route #5: 49 63 60 66 15 32 30 54 1 76 14
Route #6: 78 29 38 42 52 98 70 12 13 8 73
Route #7: 34 91 3 58 18 5 71 43 36 10 92
Route #8: 24 9 93 7 22 94 23 99 6 56 25
Route #9: 47 69 39 53 40 88 57 21 11 65 77
Route #10: 41 86 85 74 4 19 67 89 95 90 50
Cost 13484
